%nprocshared=8
%mem=4000MB
%chk=305_73scan.chk
# opt freq em=gd3bj int=ultrafine pbe1pbe scf=xqc SVP

Title Card Required

1 2
 C                  2.66770000   -1.07300000    0.88430000
 C                  0.76070000    0.06160000   -0.27990000
 C                  4.93590000   -1.29970000   -4.19910000
 C                  7.70870000   -0.97090000   -2.92200000
 C                  5.92610000   -3.31160000   -2.15880000
 C                  2.95660000    1.27020000   -0.09360000
 C                  2.28390000   -0.11090000   -0.24010000
 C                  4.49230000    1.27220000   -0.08930000
 C                  5.06870000    0.75950000   -1.42110000
 N                  4.95360000    2.66740000    0.13950000
 O                  5.34390000    1.49030000   -2.36930000
 O                  5.25490000   -0.58620000   -1.37310000
 Si                 5.92690000   -1.48040000   -2.61420000
 H                  2.14940000   -2.03100000    0.76510000
 H                  2.40310000   -0.66420000    1.86480000
 H                  3.74020000   -1.28880000    0.88080000
 H                  0.24610000   -0.89820000   -0.16440000
 H                  0.45060000    0.49060000   -1.23890000
 H                  0.41090000    0.72910000    0.51520000
 H                  5.39450000   -1.87600000   -5.00810000
 H                  4.88100000   -0.25340000   -4.51220000
 H                  3.91600000   -1.66750000   -4.05210000
 H                  8.14200000   -1.55510000   -3.73920000
 H                  8.31370000   -1.13700000   -2.02550000
 H                  7.77230000    0.08940000   -3.18360000
 H                  6.41460000   -3.89930000   -2.94180000
 H                  4.90120000   -3.67560000   -2.04260000
 H                  6.46120000   -3.47470000   -1.21890000
 H                  2.60520000    1.72940000    0.84170000
 H                  2.59620000    1.91480000   -0.90740000
 H                  2.58400000   -0.56280000   -1.19260000
 H                  4.89470000    0.66970000    0.73070000
 H                  4.67980000    3.22130000   -0.67810000
 H                  5.97430000    2.67730000    0.11360000






