%nprocshared=8
%mem=4000MB
%chk=494.2.chk
# opt freq em=gd3bj int=ultrafine pbe1pbe scf=xqc svp

MODEL        1

1 1
 C              0   -4.16500000    9.82300000   -0.72300000
 C              0   -3.67900000    8.76000000   -2.97000000
 C              0   -2.48600000    7.95900000   -0.68200000
 C              0   -3.80800000    8.51300000   -1.43400000
 C              0   -2.25500000    6.49000000   -1.08500000
 C              0   -2.96400000    5.92400000   -2.25700000
 N              0   -0.75700000    6.30200000   -1.36200000
 O              0   -2.45600000    5.21400000   -3.07400000
 H              0   -3.48800000   10.66400000   -1.00000000
 H              0   -4.07600000    9.55500000    0.31600000
 H              0   -5.09300000   10.35900000   -0.90600000
 H              0   -4.17500000    9.65700000   -3.31900000
 H              0   -4.38900000    7.89100000   -3.29600000
 H              0   -2.73600000    8.65600000   -3.44000000
 H              0   -2.34900000    8.28300000    0.33400000
 H              0   -1.61600000    8.41600000   -1.23700000
 H              0   -4.49100000    7.75600000   -1.06900000
 H              0   -2.69600000    5.84200000   -0.33700000
 H              0   -0.21800000    5.94900000   -0.53300000
 H              0   -0.71500000    5.86800000   -2.30300000


