%nprocshared=8
%mem=4000MB
%chk=305_73scan.chk
# freq=hpmodes em=gd3bj int=ultrafine pbe1pbe scf=xqc svp

Title Card Required

1 1
C       -1.188908      7.546663     -0.312326
C       -2.405419      9.496078     -1.223166
C       -0.094627      9.807101     -0.410662
C       -1.070333      8.803649     -1.063714
C        1.356688      9.180273     -0.101947
C        2.031561      8.490398     -1.284691
N        2.332296     10.239857      0.117718
O        2.223355      7.179508     -1.137668
H       -1.194926      7.819262      0.740625
H       -0.235846      6.945411     -0.408878
H       -2.053091      6.916148     -0.559038
H       -2.729666      9.893926     -0.245093
H       -3.121742      8.953127     -1.749081
H       -2.093123     10.279983     -1.961548
H       -0.518564     10.255422      0.448479
H        0.070205     10.651552     -1.089615
H       -0.663350      8.577379     -1.962583
H        1.179570      8.600190      0.810883
H        1.886692     11.090199      0.617906
H        2.660722     10.597933     -0.700332



